/*********************************************
 * OPL 12.6.0.0 Data
 * Author: Adrian Rodriguez Bazaga, Pau Rodriguez Esmerats
 * Creation Date: 06/12/2017 at 23:04:57
 *********************************************/

nNurses=157;
maxConsec=2;
maxPresence=7;
maxHours=5;
minHours=1;
hours=24;
demand= [26 24 36 44 24 36 44 28 29 23 5 5 6 6 8 2 5 1 3 1 18 39 23 26  ];
